c Lingeling SAT Solver
c 
c Version ala b02aa1a04343558c4252b5f4a723be021964f652
c 
c Copyright (C) 2010-2012 Armin Biere JKU Linz Austria.
c All rights reserved.
c 
c released Sat Oct 13 14:05:26 CEST 2012
c compiled Sat Feb 16 02:48:12 EST 2013
c 
c gcc (Debian 4.4.5-8) 4.4.5
c -Wall -O3 -DNLGLOG -DNDEBUG -DNCHKSOL -DNLGLPICOSAT 
c Linux greencar2 2.6.32-5-amd64 x86_64
c 
c reading input file p53.cnf
c no embedded options
c found 'p cnf 231522 717756' header
c read 231522 variables, 717756 clauses, 1493278 literals in 0.0 seconds
c
c feature vars 231522
c feature lits.total 1493278
c feature lits.pos 795211
c feature lits.neg 698067
c feature clauses.total 717756
c feature clauses.unit 86248
c feature clauses.bin 505494
c feature clauses.trn 124614
c feature clauses.lrg 1400
c feature cog.val.min 1
c feature cog.val.avg 103174
c feature cog.val.max 222813
c feature cog.var.min 1
c feature cog.var.avg 115762
c feature cog.var.max 231521
c
c
c --abstime=0
c --acts=2
c --actavgmax=120
c --actstdmin=20
c --actstdmax=80
c --agile=23
c --bias=2
c --block=1
c --blkrtc=0
c --blkclslim=2000
c --blkocclim=2000
c --blkmaxeff=2147483647
c --blkmineff=10000000
c --blkreleff=20
c --card=0
c --cce=3
c --ccemaxeff=100000000
c --ccemineff=5000000
c --ccereleff=3
c --check=0
c --cgrclsr=1
c --cgrmaxority=20
c --cgrmaxeff=8000000
c --cgrmineff=200000
c --cgreleff=1
c --cgrexteq=1
c --cgrextand=1
c --cgrextunits=1
c --cgrextite=1
c --cgrextxor=1
c --cliff=1
c --cliffreleff=8
c --cliffmineff=10000000
c --cliffmaxeff=100000000
c --compact=0
c --decompose=1
c --defragint=10000000
c --defragfree=50
c --elim=1
c --elmrtc=0
c --elmblk=1
c --elmclslim=1000
c --elmocclim=1000
c --elmaxeff=100000000
c --elmineff=5000000
c --elmreleff=10
c --sleeponabort=0
c --exitonabort=0
c --flipping=1
c --flipint=2
c --flipdur=50
c --fliptop=1
c --force=0
c --gauss=1
c --gaussextrall=1
c --gaussmaxor=20
c --gaussexptrn=1
c --gaussmaxeff=50000000
c --gaussmineff=2000000
c --gaussreleff=2
c --gluescale=2
c --gluekeep=0
c --inprocessing=1
c --cintinc=10000
c --irrlim=20
c --lift=1
c --lftmaxeff=20000000
c --lftmineff=500000
c --lftreleff=6
c --lhbr=1
c --lkhd=1
c --clim=-1
c --mocint=1000
c --move=2
c --log=-1
c --otfs=1
c --phase=0
c --phaseneginit=0
c --plain=0
c --probe=1
c --prbasicmaxeff=100000000
c --prbasicmineff=1000000
c --prbasicreleff=10
c --prbasic=1
c --prbasicroundlim=9
c --queuemergelim=10000
c --queuefactor=833
c --queueinc=20
c --rmincpen=4
c --seed=0
c --smallirr=90
c --smallve=1
c --smallvevars=12
c --randec=1
c --randecint=1000
c --redfixed=0
c --redlbound=0
c --redlexpfac=10
c --redldoutfac=0
c --redloutinc=10000
c --redlinit=1000
c --redlinc=1000
c --redinoutinc=100
c --redlmininc=10
c --redlmaxinc=200
c --redlminrel=10
c --redlmaxrel=300
c --redlminabs=500
c --redlmaxabs=1000000
c --reduce=1
c --restart=2
c --restartint=5
c --rstinoutinc=110
c --simplify=1
c --simpdelay=100
c --simpen=4
c --sizepen=1000000
c --sizemaxpen=3
c --sortlits=0
c --syncint=111111
c --termint=122222
c --ternres=1
c --ternresrtc=0
c --trnrmineff=4000000
c --trnrmaxeff=40000000
c --trnreleff=10
c --transred=1
c --trdmineff=100000
c --trdmaxeff=2000000
c --trdreleff=10
c --unhide=1
c --unhdextstamp=1
c --unhdhbr=0
c --unhdmaxeff=20000000
c --unhdmineff=1000000
c --unhdreleff=4
c --unhdlnpr=3
c --unhdroundlim=5
c --verbose=1
c --witness=1
c [limits] no conflict limit
c [limits] simplification delayed by 100 to 100 conflicts
c 
c  seconds         irredundant          redundant clauses agility   height
c          variables clauses conflicts large binary ternary    glue         MB
c 
c *    0.0  128014   536846         0       0      0     0  64  0.0   0.0   42
c [cut-width] 179193, max 277469, min4 119672 at 75%, min10 33947 at 89%
c [decision-order] bias 1, old 1
c [queue-schedule-all-variables]
c s    0.0  128014   536846         0       0      0     0  64  0.0   0.0   42
c [simplification-1] limit hit at 100 conflicts
c [simplification-1] simplification penalty of 4
c [ternres-1] limit 4000000 with penalty 0 = 0 + 0
c [ternres-1] all 128014 free variables schedulable
c [ternres-1] 0 ternary resolvents (0 bin, 0 trn)
c [ternres-1] 25847 variables remain 20% (102167 retained)
c [gauss-1] limit 2000000 penalty 0 = 0 + 0
c [gauss-1] extracted 165304 xors of average arity 2.0
c [gauss-1] connected 330609 occurrences of 114373 variables (average 2.9)
c [gauss-1] limit 2000000 penalty 0 = 0 + 0
c d    1.5   59047   267777       100      99      0     0  53  5.0 354.2   21
c [gauss-1] exported 0 unary, 2 binary and 0 ternary equations
c G    1.5   59047   267777       100      99      0     0  53  5.0 354.2   21
c [basicprobe-1] limit 1000000 penalty 0 = 0 + 0
c [basicprobe-1-0] 4250 probes remain 7% after last round
c [basicprobe-1-0] 1 units = 1 failed (100%) + 0 lifted (0%)
c [basicprobe-1-0] removed 1 variables, found 9517 hbrs
c p    1.8   59046   267777       100      99   9517     0  53  5.0 354.2   26
c [cgrclsr-1] limit 200000 penalty 0 = 0 + 0
c [cgrclsr-1] all 59046 free variables schedulable
c [cgrclsr-1] fully completed congruence closure
c [lift-1] limit 500000 with penalty 0 = 0 + 0
c [lift-1] using 59046 probes 100%
c [lift-1] 59012 variables remain 100% (34 retained)
c [cliff-1] limit of 10000000 steps penalty 0 = 0 + 0
c [cliff-1] failed 0, lifted 0
c [unhide-1] limit 1000000 with penalty 0 = 0 + 0
c [unhide-1-1] 0 units, 1 failed, 21768 tauts, 0 hbrs, 76 literals
c u    3.0   59044   246004       100      99  19958     0  53  5.0 354.2   26
c [transred-1] limit 100000 with penalty 0 = 0 + 0
c t    3.0   59044   246001       100      99  19953     0  53  5.0 354.2   26
c [block-1] scheduling all variables this time
c [block-1] scheduled 59044 variables 100%
c [block-1] limit of 10000000 steps penalty 0 = 0 + 0
c [block-1] fully completed blocked clause elimination
c [block-1] transition to [ all 0 rem 0 ] state
c [block-1] eliminated 4600 blocked clauses
c k    3.3   59044   241392       100      99  19953  4600  53  5.0 354.2   21
c [cce-1] scheduling all variables this time
c [cce-1] limit of 10000000 steps penalty 0 = 0 + 0
c [cce-1] incomplete covered clause elimination 53453 not tried 91%
c [cce-1] transition to [ all 1 rem 1 ] state
c [cce-1] eliminated 148 covered clauses
c E    4.0   59043   241244       100      99  30779  4600  53  5.0 354.2   22
c [elim-1] scheduling all variables this time
c [elim-1] scheduled 59043 variables 100%
c [elim-1] limit of 5000000 steps penalty 0 = 0 + 0
c [elim-1] incomplete variable elimination 44238 not tried 75%
c [elim-1] transition to [ all 1 rem 1 ] state
c [elim-1] eliminated 6483 = 11% variables out of 59043
c e    5.6   52560   237283       100      55  13899   567  53  5.0 354.2   21
c [phase-1] phase bias: 1450 positive 17%, 7144 negative 83%
c [simplification-1] removed 75454 variables 58%
c [simplification-1] limit increments divided by 30
c [simplification-1] arithmetic increase of conflict limit interval by 333
c [simplification-1] new irredundant limit 2347882
c [simplification-1] new conflict limit 433
c [simplification-1] simplification penalty reduced to 3
c R    5.8   52560   237283       160     102  13902   577  23  4.8 406.1   26
c R    5.9   52560   237283       407     310  13913   603   9  5.3 354.7   26
c [simplification-2] limit hit at 433 conflicts
c [simplification-2] simplification penalty of 3
c [ternres-2] limit 2000000 with penalty 1 = 1 + 0
c [ternres-2] 10660 schedulable variables 20%
c [ternres-2] 6 ternary resolvents (0 bin, 6 trn)
c [ternres-2] fully completed ternary resolution
c T    6.0   52560   237283       433     329  13914   614   8  5.2 336.7   26
c [gauss-2] limit 2000000 penalty 0 = 0 + 0
c [gauss-2] extracted 831 xors of average arity 3.0
c [gauss-2] connected 2493 occurrences of 1251 variables (average 2.0)
c [gauss-2] limit 2000000 penalty 0 = 0 + 0
c [gauss-2] fully completed
c [gauss-2] exported 0 unary, 0 binary and 0 ternary equations
c G    6.2   52560   237283       433     329  13914   614   8  5.2 336.7   21
c [basicprobe-2] limit 1000000 penalty 0 = 0 + 0
c [basicprobe-2-0] 3934 probes remain 7% after last round
c [basicprobe-2-0] removed 0 variables, found 1095 hbrs
c p    6.5   52560   237283       433     329  15006   614   8  5.2 336.7   26
c [cgrclsr-2] limit 100000 penalty 1 = 1 + 0
c [cgrclsr-2] all 52560 free variables schedulable
c [cgrclsr-2] fully completed congruence closure
c [lift-2] limit 250000 with penalty 1 = 1 + 0
c [lift-2] using 52531 probes 100%
c [lift-2] 52508 variables remain 100% (52 retained)
c [cliff-2] limit of 5000000 steps penalty 1 = 1 + 0
c [cliff-2] failed 0, lifted 0
c [unhide-2] limit 1000000 with penalty 0 = 0 + 0
c [unhide-2-2] 0 units, 1 failed, 3012 tauts, 0 hbrs, 234 literals
c u    7.3   52559   237268       433     326  12583   614   8  5.2 336.7   26
c [transred-3] limit 100000 with penalty 0 = 0 + 0
c t    7.3   52559   237266       433     326  12580   614   8  5.2 336.7   26
c [block-2] scheduling all variables this time
c [block-2] scheduled 52559 variables 100%
c [block-2] limit of 10000000 steps penalty 0 = 0 + 0
c [block-2] fully completed blocked clause elimination
c [block-2] transition to [ all 0 rem 0 ] state
c [block-2] eliminated 0 blocked clauses
c [cce-2] 49738 variables 95% will be scheduled this time
c [cce-2] limit of 10000000 steps penalty 0 = 0 + 0
c [cce-2] 49223 variables 94% remain to be tried next time
c [cce-2] transition to [ all 0 rem 1 ] state
c [cce-2] eliminated 398 covered clauses
c E    8.2   52559   236861       433     326  12978   614   8  5.2 336.7   21
c [elim-2] 44170 variables 84% will be scheduled this time
c [elim-2] scheduled 44170 variables 84%
c [elim-2] limit of 5000000 steps penalty 0 = 0 + 0
c [elim-2] 34061 variables 65% remain to be tried next time
c [elim-2] transition to [ all 0 rem 1 ] state
c [elim-2] eliminated 1313 = 2% variables out of 52559
c e    9.8   51246   236251       433     318   7357   613   8  5.2 336.7   21
c [phase-2] phase bias: 0 positive 0%, 0 negative 0%
c [simplification-2] removed 1314 variables 2%
c [simplification-2] limit increments divided by 2
c [simplification-2] arithmetic increase of conflict limit interval by 5000
c [simplification-2] new irredundant limit 2347882
c [simplification-2] new conflict limit 5766
c [simplification-2] simplification penalty reduced to 2
c R   10.2   51246   236251       980     793   7371   665   7  6.9 288.8   26
c -   10.5   51246   236251      1263     503   7390   710   2  6.2 262.6   26
c R   11.1   51246   236251      2275    1411   7412   784   4  8.1 237.4   26
c -   12.8   51246   236251      4189    1566   7493   975   7  7.0 227.3   26
c 
c  seconds         irredundant          redundant clauses agility   height
c          variables clauses conflicts large binary ternary    glue         MB
c 
c R   13.1   51246   236251      5178    2520   7500  1001   8  8.9 239.1   27
c [simplification-3] limit hit at 5766 conflicts
c [simplification-3] simplification penalty of 2
c [ternres-3] limit 4000000 with penalty 0 = 0 + 0
c [ternres-3] all 51246 free variables schedulable
c [ternres-3] 152 ternary resolvents (1 bin, 151 trn)
c [ternres-3] 1122 variables remain 2% (50124 retained)
c T   13.6   51246   236251      5766    2990   7534  1228   5  8.4 225.9   27
c [gauss-3] limit 1000000 penalty 1 = 1 + 0
c [gauss-3] extracted 408 xors of average arity 3.0
c [gauss-3] connected 1224 occurrences of 989 variables (average 1.2)
c [gauss-3] limit 1000000 penalty 1 = 1 + 0
c [gauss-3] fully completed
c [gauss-3] exported 0 unary, 0 binary and 0 ternary equations
c G   13.8   51246   236251      5766    2990   7534  1228   5  8.4 225.9   22
c [basicprobe-3] limit 500000 penalty 1 = 1 + 0
c [basicprobe-3-0] 3599 probes remain 7% after last round
c [basicprobe-3-0] removed 0 variables, found 321 hbrs
c p   14.0   51246   236251      5766    2990   7855  1219   5  8.4 225.9   26
c [cgrclsr-3] limit 73973 based on 591789 irredundant literals
c [cgrclsr-3] all 51246 free variables schedulable
c [cgrclsr-3] fully completed congruence closure
c [lift-3] limit 125000 with penalty 2 = 2 + 0
c [lift-3] using 51195 probes 100%
c [lift-3] 51183 variables remain 100% (63 retained)
c [cliff-3] limit of 2500000 steps penalty 2 = 2 + 0
c [cliff-3] failed 0, lifted 0
c [unhide-3] limit 1000000 with penalty 0 = 0 + 0
c [unhide-3-3] 0 units, 0 failed, 1681 tauts, 0 hbrs, 2557 literals
c u   14.7   51246   234589      5766    2971   8002  1205   5  8.4 225.9   26
c [transred-5] limit 655834 with penalty 0 = 0 + 0
c t   14.8   51246   234587      5766    2971   7986  1205   5  8.4 225.9   26
c [block-3] scheduling all variables this time
c [block-3] scheduled 51246 variables 100%
c [block-3] limit of 5000000 steps penalty 1 = 1 + 0
c [block-3] fully completed blocked clause elimination
c [block-3] transition to [ all 0 rem 0 ] state
c [block-3] eliminated 0 blocked clauses
c [cce-3] scheduling all variables this time
c [cce-3] limit of 10000000 steps penalty 0 = 0 + 0
c [cce-3] 47765 variables 93% remain to be tried next time
c [cce-3] transition to [ all 1 rem 1 ] state
c [cce-3] eliminated 235 covered clauses
c E   15.7   51246   234352      5766    2971   8506  1198   5  8.4 225.9   22
c [elim-3] scheduling all variables this time
c [elim-3] scheduled 51246 variables 100%
c [elim-3] limit of 5000000 steps penalty 0 = 0 + 0
c [elim-3] 33153 variables 65% remain to be tried next time
c [elim-3] transition to [ all 1 rem 1 ] state
c [elim-3] eliminated 389 = 1% variables out of 51246
c e   17.3   50857   234021      5766    2964   7679  1196   5  8.4 225.9   22
c [simplification-3] removed 389 variables 0%
c [simplification-3] no reduction of limit increments
c [simplification-3] arithmetic increase of conflict limit interval by 10000
c [simplification-3] new irredundant limit 2347882
c [simplification-3] new conflict limit 21099
c [simplification-3] simplification penalty reduced to 1
c -   19.4   50857   234021      8165    2510   7769  1418   6  7.9 223.0   26
c 1   20.6   50857   234021     10377    4526   7828  1540   7  8.7 233.4   27
c 
c  seconds         irredundant          redundant clauses agility   height
c          variables clauses conflicts large binary ternary    glue         MB
c 
c blkd: 3 bces, 4600 removed, 2102909 resolutions, 5832491 steps
c blkd: 4600 blocking literals 1%, 0 pure
c cces: 3 cces, 776 eliminated, 776 ate 100%, 0 abce 0%
c cces: 18220 probed, 1 lifted, 1 failed
c clff: 3 cliffs, 0 lifted, 0 failed
c clff: 8403 decisions, 17519428 steps
c clls: 1 sat, 0 simp, 0 freeze, 0 melt
c clls: 2211034 add, 0 assume,, 0 deref, 0 failed
c clls: 0 cassume, 0 mosat
c coll: 19 gcs, 0 rescored clauses
c cgrs: 3 count, 373973 esteps, 77401 csteps
c cgrs: 0 eqs, 0 units
c cgrs: 0 matched (0 ands 0%, 0 xors 0%, 0 ites 0%)
c cgrs: 0 simplified (0 ands 0%, 0 xors 0%, 0 ites 0%)
c cgrs: 2091 extracted (1816 ands 87%, 275 xors 13%, 0 ites 0%)
c dcps: 4 decompositions, 68967 equivalent 30%
c decs: 201248 decision, 200 random 0.099%
c decs: 51617 flipped 25.648% (in 69 phases)
c elms: 3 elims, 8185 eliminated 4%
c elms: 8185 small 100%, 0 large 0%
c elms: 36346 tried small, 8185 succeeded 23%, 28161 failed 77%
c elms: 0 subsumed, 0 strengthened, 0 blocked
c elms: 477906 copies, 327787 resolutions, 977138 ipos
c elms: 0 subchks, 0 strchks
c frcs: 0 computed, 22.5 - 77.5 average min-cut range
c gaus: 3 extractions, 166543 extracted, 2.0 size, 3 max
c gaus: exported 0 units, 2 binary and 0 ternary equations
c gaus: 0 gc, 10000268 steps, 5000134 extr 50%, 2324618 elim 23%
c glue: 8.7 avg, 2.8 scaled avg
c glue: 0 maxredglue=15 (0%)
c lift: 3 phases, 413 probed (138 level1 33%, 275 level2 67%)
c lift: 0 units, 0 equivalences, 1 implications
c hbrs: 33066 hbrs = 33066 trn 100% + 0 lrg 0%, 20 sub 0%
c lrnd: 10285 clauses, 6179 uips 60%, 29.4 length, 8.7 glue
c ints: 511 luby (67103 steps), 0 inout (0 steps)
c mins: 302006 learned lits, 6% minimized
c move: moved 5376, 776 binary 14%, 4600 ternary 86%
c otfs: str 347 dyn (287 red, 60 irr) 92 drv 27%, 255 rst 73%
c otfs: sub 5 dyn (5 red, 0 irr)
c phas: 2 computed, 8751 set, 1450 pos (17%), 7301 neg (83%)
c prbs: 3 basic, 3233 probed, 1 failed, 0 lifted
c prps: 30754882 props, 115 props/dec
c prps: 76% srch, 24% simp, 0% lkhd
c psns: 845231 searches, 160056 hits, 19% hit rate
c queu: 42824 new, 16068 del, 120 maximum priority
c queu: 26729 merged, 24343 collected, 5 gcs
c queu: 10632 deprioritized, 25.0 lines on average
c reds: 3 count, 0 reset, 3 acts 100%, 0 exp 0%
c reds: 3 arithmetic 100%, 3 double 100%
c rmbd: 17 removed, 0 red 0%
c rsts: 477 restarts 94%, 33 skipped 6%
c rsts: 66 kept 13.8% average 40.4%
c simp: 3 count (0 ilim 0%, 0 plim 0%, 3 clim 100%)
c trnr: 3 count, 1 bin, 157 trn, 8819564 steps
c tops: 103513 fixed 45%, 0 iterations
c trds: 6 transitive reductions, 31 removed, 0 failed
c trds: 914 nodes, 1271 edges, 860713 steps
c unhd: 3 count, 3 rounds, 3728025 steps
c unhd: 0 non-trivial sccs of average size 0.0
c unhd: 0 units, 0 bin, 0 trn, 0 lrg
c unhd: 2 failed, 1 stamp, 0 lits, 0 bin, 1 trn, 0 lrg
c unhd: 26461 tauts, 0 bin 0%, 578 trn 2%, 11 lrg 0%
c unhd: 26461 tauts, 25872 stamp 98%, 3033 red 11%
c unhd: 0 hbrs, 0 trn 0%, 0 lrg 0%, 0 red 0%
c unhd: 2867 strd, 0 bin 0%, 11 trn 0%, 2856 lrg 100%, 2867 red 100%
c vars: 50857 remaining 22% and 180665 removed 78% out of 231522
c vars: 103513 fixed 45%, 8185 eliminated 4%, 68967 equivalent 30%
c vsts: 152751938 visits, 78% srch, 22% simp, 0% lkhd
c vsts: 5.1 search visits per propagation 11423.4 per conflict
c wchs: 14108762 pushed, 5650027 enlarged, 32 defrags
c 
c scaledglue  added       reduced       forcing      resolved     conflicts
c 
c all      9113 100      4483 100     76914 100     20820 100      1758 100
c 
c  0          0   0         0   0         0   0         0   0         0   0 
c  1         73   1        20   0      1188   2       180   1        11   1 
c  2       3532  39      1889  42     39740  52      7419  36       603  34 
c  3       3038  33<     1277  28<    28327  37<     7604  37<      703  40<
c  4       1305  14       708  16      5073   7      3012  14       254  14 
c  5        513   6       284   6      1443   2      1216   6        78   4 
c  6        287   3       115   3       541   1       609   3        27   2 
c  7        150   2        53   1       239   0       316   2        33   2 
c  8         86   1        56   1       172   0       206   1        26   1 
c  9        105   1        65   1       151   0       215   1        21   1 
c 10         12   0         9   0        23   0        22   0         2   0 
c 11          4   0         2   0         7   0        10   0         0   0 
c 12          7   0         4   0         9   0        10   0         0   0 
c 13          0   0         0   0         0   0         0   0         0   0 
c 14          1   0         1   0         1   0         1   0         0   0 
c 15          0   0         0   0         0   0         0   0         0   0 
c 
c avg             3.1           3.2           2.6           3.2           3.2
c std             1.5           1.5           0.9           1.4           1.4
c 
c 201248 decisions, 10377 conflicts, 502.7 conflicts/sec
c 30754882 propagations, 1.5 megaprops/sec
c 20.6 seconds, 49.1 MB
c 
c    1.056   5% analysis
c    0.848   4% block
c    0.044   0% bump
c    0.000   0% card
c    1.968  10% cce
c    1.044   5% cliff
c    0.024   0% cutwidth
c    0.368   2% decide
c    0.000   0% force
c    1.448   7% gc
c    0.588   3% cgrclsr
c    0.724   4% decomp
c    0.420   2% defrag
c    4.720  23% elim
c    1.724   8% gauss
c    0.476   2% lift
c    0.128   1% mincls
c    0.080   0% phase
c    0.268   1% probe
c    0.020   0% reduce
c    0.512   2% restart
c    0.236   1% ternres
c    0.096   0% transred
c    0.568   3% unhide
c ==================================
c    0.036   0% preprocessing     0%
c   13.329  65% inprocessing    100%
c ==================================
c   13.365  65% simplifying
c    0.000   0% lookahead
c    7.260  35% search
c ==================================
c   20.641 100% all
c
s SATISFIABLE
